225
168
186
336
76
162
440
204
102
200
270
235
252
150
301
160
441
117
112
315
245
156
410
310
240
259
234
44
165
250
160
203
460
360
150
336
248
392
152
243
360
102
102
205
270
470
222
52
172
160
200
